p cnf 966 2482
51 -700 -701 0
-51 700 0
-51 701 0
52 -51 -702 0
-52 51 0
-52 702 0
53 -703 -704 0
-53 703 0
-53 704 0
54 -53 -705 0
-54 53 0
-54 705 0
55 -706 -707 0
-55 706 0
-55 707 0
56 -708 -709 0
-56 708 0
-56 709 0
57 -56 -9 0
-57 56 0
-57 9 0
58 -710 -55 0
-58 710 0
-58 55 0
59 -711 -712 0
-59 711 0
-59 712 0
60 -59 -12 0
-60 59 0
-60 12 0
61 -713 -58 0
-61 713 0
-61 58 0
62 -13 -704 0
-62 13 0
-62 704 0
63 -62 -9 0
-63 62 0
-63 9 0
64 -714 -61 0
-64 714 0
-64 61 0
65 -12 -7 0
-65 12 0
-65 7 0
66 -65 -14 0
-66 65 0
-66 14 0
67 -715 -64 0
-67 715 0
-67 64 0
68 -716 -13 0
-68 716 0
-68 13 0
69 -68 -717 0
-69 68 0
-69 717 0
70 -718 -67 0
-70 718 0
-70 67 0
71 -719 -5 0
-71 719 0
-71 5 0
72 -71 -720 0
-72 71 0
-72 720 0
73 -721 -70 0
-73 721 0
-73 70 0
74 -722 -723 0
-74 722 0
-74 723 0
75 -74 -702 0
-75 74 0
-75 702 0
76 -724 -73 0
-76 724 0
-76 73 0
77 -21 -2 0
-77 21 0
-77 2 0
78 -77 -22 0
-78 77 0
-78 22 0
79 -725 -76 0
-79 725 0
-79 76 0
80 -726 -23 0
-80 726 0
-80 23 0
81 -80 -727 0
-81 80 0
-81 727 0
82 -728 -79 0
-82 728 0
-82 79 0
83 -729 -5 0
-83 729 0
-83 5 0
84 -83 -22 0
-84 83 0
-84 22 0
85 -730 -82 0
-85 730 0
-85 82 0
86 -27 -23 0
-86 27 0
-86 23 0
87 -86 -717 0
-87 86 0
-87 717 0
88 -731 -85 0
-88 731 0
-88 85 0
89 -28 -19 0
-89 28 0
-89 19 0
90 -89 -705 0
-90 89 0
-90 705 0
91 -732 -88 0
-91 732 0
-91 88 0
92 -733 -29 0
-92 733 0
-92 29 0
93 -92 -31 0
-93 92 0
-93 31 0
94 -734 -91 0
-94 734 0
-94 91 0
95 -32 -711 0
-95 32 0
-95 711 0
96 -95 -19 0
-96 95 0
-96 19 0
97 -735 -94 0
-97 735 0
-97 94 0
98 -33 -703 0
-98 33 0
-98 703 0
99 -98 -6 0
-99 98 0
-99 6 0
100 -736 -97 0
-100 736 0
-100 97 0
101 -737 -17 0
-101 737 0
-101 17 0
102 -101 -16 0
-102 101 0
-102 16 0
103 -738 -100 0
-103 738 0
-103 100 0
104 -28 -727 0
-104 28 0
-104 727 0
105 -104 -739 0
-105 104 0
-105 739 0
106 -740 -103 0
-106 740 0
-106 103 0
107 -727 -719 0
-107 727 0
-107 719 0
108 -107 -741 0
-108 107 0
-108 741 0
109 -742 -106 0
-109 742 0
-109 106 0
110 -743 -744 0
-110 743 0
-110 744 0
111 -110 -700 0
-111 110 0
-111 700 0
112 -745 -109 0
-112 745 0
-112 109 0
113 -746 -2 0
-113 746 0
-113 2 0
114 -113 -31 0
-114 113 0
-114 31 0
115 -747 -112 0
-115 747 0
-115 112 0
116 -748 -709 0
-116 748 0
-116 709 0
117 -116 -733 0
-117 116 0
-117 733 0
118 -749 -115 0
-118 749 0
-118 115 0
119 -750 -38 0
-119 750 0
-119 38 0
120 -119 -722 0
-120 119 0
-120 722 0
121 -751 -118 0
-121 751 0
-121 118 0
122 -16 -2 0
-122 16 0
-122 2 0
123 -122 -752 0
-123 122 0
-123 752 0
124 -753 -121 0
-124 753 0
-124 121 0
125 -754 -20 0
-125 754 0
-125 20 0
126 -125 -739 0
-126 125 0
-126 739 0
127 -755 -124 0
-127 755 0
-127 124 0
128 -756 -30 0
-128 756 0
-128 30 0
129 -128 -16 0
-129 128 0
-129 16 0
130 -757 -127 0
-130 757 0
-130 127 0
131 -36 -726 0
-131 36 0
-131 726 0
132 -131 -708 0
-132 131 0
-132 708 0
133 -758 -130 0
-133 758 0
-133 130 0
134 -759 -760 0
-134 759 0
-134 760 0
135 -134 -701 0
-135 134 0
-135 701 0
136 -761 -133 0
-136 761 0
-136 133 0
137 -748 -22 0
-137 748 0
-137 22 0
138 -137 -739 0
-138 137 0
-138 739 0
139 -762 -136 0
-139 762 0
-139 136 0
140 -763 -10 0
-140 763 0
-140 10 0
141 -140 -764 0
-141 140 0
-141 764 0
142 -765 -139 0
-142 765 0
-142 139 0
143 -28 -21 0
-143 28 0
-143 21 0
144 -143 -16 0
-144 143 0
-144 16 0
145 -766 -142 0
-145 766 0
-145 142 0
146 -46 -767 0
-146 46 0
-146 767 0
147 -146 -1 0
-147 146 0
-147 1 0
148 -768 -145 0
-148 768 0
-148 145 0
149 -48 -47 0
-149 48 0
-149 47 0
150 -149 -705 0
-150 149 0
-150 705 0
151 -769 -148 0
-151 769 0
-151 148 0
152 -763 -19 0
-152 763 0
-152 19 0
153 -152 -727 0
-153 152 0
-153 727 0
154 -770 -151 0
-154 770 0
-154 151 0
155 -47 -739 0
-155 47 0
-155 739 0
156 -155 -720 0
-156 155 0
-156 720 0
157 -771 -154 0
-157 771 0
-157 154 0
158 -772 -729 0
-158 772 0
-158 729 0
159 -158 -773 0
-159 158 0
-159 773 0
160 -774 -157 0
-160 774 0
-160 157 0
161 -46 -712 0
-161 46 0
-161 712 0
162 -161 -702 0
-162 161 0
-162 702 0
163 -775 -160 0
-163 775 0
-163 160 0
164 -38 -776 0
-164 38 0
-164 776 0
165 -164 -40 0
-165 164 0
-165 40 0
166 -777 -163 0
-166 777 0
-166 163 0
167 -772 -45 0
-167 772 0
-167 45 0
168 -167 -733 0
-168 167 0
-168 733 0
169 -778 -166 0
-169 778 0
-169 166 0
170 -727 -722 0
-170 727 0
-170 722 0
171 -170 -705 0
-171 170 0
-171 705 0
172 -779 -169 0
-172 779 0
-172 169 0
173 -737 -19 0
-173 737 0
-173 19 0
174 -173 -727 0
-174 173 0
-174 727 0
175 -780 -172 0
-175 780 0
-175 172 0
176 -36 -704 0
-176 36 0
-176 704 0
177 -176 -1 0
-177 176 0
-177 1 0
178 -781 -175 0
-178 781 0
-178 175 0
179 -759 -717 0
-179 759 0
-179 717 0
180 -179 -33 0
-180 179 0
-180 33 0
181 -782 -178 0
-181 782 0
-181 178 0
182 -729 -711 0
-182 729 0
-182 711 0
183 -182 -22 0
-183 182 0
-183 22 0
184 -783 -181 0
-184 783 0
-184 181 0
185 -723 -701 0
-185 723 0
-185 701 0
186 -185 -741 0
-186 185 0
-186 741 0
187 -784 -184 0
-187 784 0
-187 184 0
188 -750 -719 0
-188 750 0
-188 719 0
189 -188 -16 0
-189 188 0
-189 16 0
190 -785 -187 0
-190 785 0
-190 187 0
191 -19 -2 0
-191 19 0
-191 2 0
192 -191 -29 0
-192 191 0
-192 29 0
193 -786 -190 0
-193 786 0
-193 190 0
194 -748 -37 0
-194 748 0
-194 37 0
195 -194 -787 0
-195 194 0
-195 787 0
196 -788 -193 0
-196 788 0
-196 193 0
197 -764 -789 0
-197 764 0
-197 789 0
198 -197 -34 0
-198 197 0
-198 34 0
199 -790 -196 0
-199 790 0
-199 196 0
200 -767 -21 0
-200 767 0
-200 21 0
201 -200 -739 0
-201 200 0
-201 739 0
202 -791 -199 0
-202 791 0
-202 199 0
203 -719 -787 0
-203 719 0
-203 787 0
204 -203 -31 0
-204 203 0
-204 31 0
205 -792 -202 0
-205 792 0
-205 202 0
206 -748 -703 0
-206 748 0
-206 703 0
207 -206 -793 0
-207 206 0
-207 793 0
208 -794 -205 0
-208 794 0
-208 205 0
209 -17 -1 0
-209 17 0
-209 1 0
210 -209 -787 0
-210 209 0
-210 787 0
211 -795 -208 0
-211 795 0
-211 208 0
212 -5 -701 0
-212 5 0
-212 701 0
213 -212 -796 0
-213 212 0
-213 796 0
214 -797 -211 0
-214 797 0
-214 211 0
215 -49 -19 0
-215 49 0
-215 19 0
216 -215 -22 0
-216 215 0
-216 22 0
217 -798 -214 0
-217 798 0
-217 214 0
218 -48 -743 0
-218 48 0
-218 743 0
219 -218 -29 0
-219 218 0
-219 29 0
220 -799 -217 0
-220 799 0
-220 217 0
221 -19 -704 0
-221 19 0
-221 704 0
222 -221 -800 0
-222 221 0
-222 800 0
223 -801 -220 0
-223 801 0
-223 220 0
224 -802 -719 0
-224 802 0
-224 719 0
225 -224 -29 0
-225 224 0
-225 29 0
226 -803 -223 0
-226 803 0
-226 223 0
227 -804 -711 0
-227 804 0
-227 711 0
228 -227 -727 0
-228 227 0
-228 727 0
229 -805 -226 0
-229 805 0
-229 226 0
230 -739 -796 0
-230 739 0
-230 796 0
231 -230 -8 0
-231 230 0
-231 8 0
232 -806 -229 0
-232 806 0
-232 229 0
233 -47 -793 0
-233 47 0
-233 793 0
234 -233 -50 0
-234 233 0
-234 50 0
235 -807 -232 0
-235 807 0
-235 232 0
236 -750 -789 0
-236 750 0
-236 789 0
237 -236 -741 0
-237 236 0
-237 741 0
238 -808 -235 0
-238 808 0
-238 235 0
239 -35 -10 0
-239 35 0
-239 10 0
240 -239 -741 0
-240 239 0
-240 741 0
241 -809 -238 0
-241 809 0
-241 238 0
242 -744 -727 0
-242 744 0
-242 727 0
243 -242 -6 0
-243 242 0
-243 6 0
244 -810 -241 0
-244 810 0
-244 241 0
245 -30 -712 0
-245 30 0
-245 712 0
246 -245 -717 0
-246 245 0
-246 717 0
247 -811 -244 0
-247 811 0
-247 244 0
248 -39 -5 0
-248 39 0
-248 5 0
249 -248 -709 0
-249 248 0
-249 709 0
250 -812 -247 0
-250 812 0
-250 247 0
251 -23 -22 0
-251 23 0
-251 22 0
252 -251 -8 0
-252 251 0
-252 8 0
253 -813 -250 0
-253 813 0
-253 250 0
254 -723 -4 0
-254 723 0
-254 4 0
255 -254 -756 0
-255 254 0
-255 756 0
256 -814 -253 0
-256 814 0
-256 253 0
257 -756 -37 0
-257 756 0
-257 37 0
258 -257 -702 0
-258 257 0
-258 702 0
259 -815 -256 0
-259 815 0
-259 256 0
260 -27 -700 0
-260 27 0
-260 700 0
261 -260 -25 0
-261 260 0
-261 25 0
262 -816 -259 0
-262 816 0
-262 259 0
263 -32 -15 0
-263 32 0
-263 15 0
264 -263 -21 0
-264 263 0
-264 21 0
265 -817 -262 0
-265 817 0
-265 262 0
266 -802 -20 0
-266 802 0
-266 20 0
267 -266 -800 0
-267 266 0
-267 800 0
268 -818 -265 0
-268 818 0
-268 265 0
269 -772 -796 0
-269 772 0
-269 796 0
270 -269 -773 0
-270 269 0
-270 773 0
271 -819 -268 0
-271 819 0
-271 268 0
272 -27 -2 0
-272 27 0
-272 2 0
273 -272 -41 0
-273 272 0
-273 41 0
274 -820 -271 0
-274 820 0
-274 271 0
275 -700 -1 0
-275 700 0
-275 1 0
276 -275 -804 0
-276 275 0
-276 804 0
277 -821 -274 0
-277 821 0
-277 274 0
278 -748 -737 0
-278 748 0
-278 737 0
279 -278 -31 0
-279 278 0
-279 31 0
280 -822 -277 0
-280 822 0
-280 277 0
281 -804 -10 0
-281 804 0
-281 10 0
282 -281 -3 0
-282 281 0
-282 3 0
283 -823 -280 0
-283 823 0
-283 280 0
284 -763 -716 0
-284 763 0
-284 716 0
285 -284 -44 0
-285 284 0
-285 44 0
286 -824 -283 0
-286 824 0
-286 283 0
287 -26 -776 0
-287 26 0
-287 776 0
288 -287 -3 0
-288 287 0
-288 3 0
289 -825 -286 0
-289 825 0
-289 286 0
290 -27 -701 0
-290 27 0
-290 701 0
291 -290 -44 0
-291 290 0
-291 44 0
292 -826 -289 0
-292 826 0
-292 289 0
293 -5 -3 0
-293 5 0
-293 3 0
294 -293 -708 0
-294 293 0
-294 708 0
295 -827 -292 0
-295 827 0
-295 292 0
296 -39 -703 0
-296 39 0
-296 703 0
297 -296 -729 0
-297 296 0
-297 729 0
298 -828 -295 0
-298 828 0
-298 295 0
299 -41 -829 0
-299 41 0
-299 829 0
300 -299 -34 0
-300 299 0
-300 34 0
301 -830 -298 0
-301 830 0
-301 298 0
302 -16 -15 0
-302 16 0
-302 15 0
303 -302 -9 0
-303 302 0
-303 9 0
304 -831 -301 0
-304 831 0
-304 301 0
305 -746 -711 0
-305 746 0
-305 711 0
306 -305 -709 0
-306 305 0
-306 709 0
307 -832 -304 0
-307 832 0
-307 304 0
308 -32 -754 0
-308 32 0
-308 754 0
309 -308 -702 0
-309 308 0
-309 702 0
310 -833 -307 0
-310 833 0
-310 307 0
311 -42 -743 0
-311 42 0
-311 743 0
312 -311 -47 0
-312 311 0
-312 47 0
313 -834 -310 0
-313 834 0
-313 310 0
314 -42 -23 0
-314 42 0
-314 23 0
315 -314 -22 0
-315 314 0
-315 22 0
316 -835 -313 0
-316 835 0
-316 313 0
317 -836 -733 0
-317 836 0
-317 733 0
318 -317 -6 0
-318 317 0
-318 6 0
319 -837 -316 0
-319 837 0
-319 316 0
320 -45 -19 0
-320 45 0
-320 19 0
321 -320 -2 0
-321 320 0
-321 2 0
322 -838 -319 0
-322 838 0
-322 319 0
323 -754 -2 0
-323 754 0
-323 2 0
324 -323 -33 0
-324 323 0
-324 33 0
325 -839 -322 0
-325 839 0
-325 322 0
326 -760 -4 0
-326 760 0
-326 4 0
327 -326 -748 0
-327 326 0
-327 748 0
328 -840 -325 0
-328 840 0
-328 325 0
329 -185 -16 0
-329 185 0
-329 16 0
330 -841 -328 0
-330 841 0
-330 328 0
331 -46 -737 0
-331 46 0
-331 737 0
332 -331 -17 0
-332 331 0
-332 17 0
333 -842 -330 0
-333 842 0
-333 330 0
334 -716 -4 0
-334 716 0
-334 4 0
335 -334 -723 0
-335 334 0
-335 723 0
336 -843 -333 0
-336 843 0
-336 333 0
337 -789 -22 0
-337 789 0
-337 22 0
338 -337 -741 0
-338 337 0
-338 741 0
339 -844 -336 0
-339 844 0
-339 336 0
340 -45 -723 0
-340 45 0
-340 723 0
341 -340 -845 0
-341 340 0
-341 845 0
342 -846 -339 0
-342 846 0
-342 339 0
343 -760 -776 0
-343 760 0
-343 776 0
344 -343 -18 0
-344 343 0
-344 18 0
345 -847 -342 0
-345 847 0
-345 342 0
346 -49 -2 0
-346 49 0
-346 2 0
347 -346 -6 0
-347 346 0
-347 6 0
348 -848 -345 0
-348 848 0
-348 345 0
349 -750 -2 0
-349 750 0
-349 2 0
350 -349 -20 0
-350 349 0
-350 20 0
351 -849 -348 0
-351 849 0
-351 348 0
352 -746 -23 0
-352 746 0
-352 23 0
353 -352 -26 0
-353 352 0
-353 26 0
354 -850 -351 0
-354 850 0
-354 351 0
355 -45 -44 0
-355 45 0
-355 44 0
356 -355 -14 0
-356 355 0
-356 14 0
357 -851 -354 0
-357 851 0
-357 354 0
358 -739 -726 0
-358 739 0
-358 726 0
359 -358 -773 0
-359 358 0
-359 773 0
360 -852 -357 0
-360 852 0
-360 357 0
361 -744 -722 0
-361 744 0
-361 722 0
362 -361 -16 0
-362 361 0
-362 16 0
363 -853 -360 0
-363 853 0
-363 360 0
364 -23 -723 0
-364 23 0
-364 723 0
365 -364 -22 0
-365 364 0
-365 22 0
366 -854 -363 0
-366 854 0
-366 363 0
367 -748 -773 0
-367 748 0
-367 773 0
368 -367 -720 0
-368 367 0
-368 720 0
369 -855 -366 0
-369 855 0
-369 366 0
370 -35 -19 0
-370 35 0
-370 19 0
371 -370 -727 0
-371 370 0
-371 727 0
372 -856 -369 0
-372 856 0
-372 369 0
373 -29 -20 0
-373 29 0
-373 20 0
374 -373 -705 0
-374 373 0
-374 705 0
375 -857 -372 0
-375 857 0
-375 372 0
376 -39 -763 0
-376 39 0
-376 763 0
377 -376 -748 0
-377 376 0
-377 748 0
378 -858 -375 0
-378 858 0
-378 375 0
379 -191 -33 0
-379 191 0
-379 33 0
380 -859 -378 0
-380 859 0
-380 378 0
381 -49 -39 0
-381 49 0
-381 39 0
382 -381 -702 0
-382 381 0
-382 702 0
383 -860 -380 0
-383 860 0
-383 380 0
384 -793 -19 0
-384 793 0
-384 19 0
385 -384 -772 0
-385 384 0
-385 772 0
386 -861 -383 0
-386 861 0
-386 383 0
387 -24 -3 0
-387 24 0
-387 3 0
388 -387 -18 0
-388 387 0
-388 18 0
389 -862 -386 0
-389 862 0
-389 386 0
390 -27 -708 0
-390 27 0
-390 708 0
391 -390 -752 0
-391 390 0
-391 752 0
392 -863 -389 0
-392 863 0
-392 389 0
393 -48 -719 0
-393 48 0
-393 719 0
394 -393 -717 0
-394 393 0
-394 717 0
395 -864 -392 0
-395 864 0
-395 392 0
396 -802 -776 0
-396 802 0
-396 776 0
397 -396 -717 0
-397 396 0
-397 717 0
398 -865 -395 0
-398 865 0
-398 395 0
399 -37 -719 0
-399 37 0
-399 719 0
400 -399 -773 0
-400 399 0
-400 773 0
401 -866 -398 0
-401 866 0
-401 398 0
402 -746 -17 0
-402 746 0
-402 17 0
403 -402 -773 0
-403 402 0
-403 773 0
404 -867 -401 0
-404 867 0
-404 401 0
405 -43 -750 0
-405 43 0
-405 750 0
406 -405 -24 0
-406 405 0
-406 24 0
407 -868 -404 0
-407 868 0
-407 404 0
408 -42 -763 0
-408 42 0
-408 763 0
409 -408 -37 0
-409 408 0
-409 37 0
410 -869 -407 0
-410 869 0
-410 407 0
411 -11 -712 0
-411 11 0
-411 712 0
412 -411 -47 0
-412 411 0
-412 47 0
413 -870 -410 0
-413 870 0
-413 410 0
414 -793 -15 0
-414 793 0
-414 15 0
415 -414 -772 0
-415 414 0
-415 772 0
416 -871 -413 0
-416 871 0
-416 413 0
417 -717 -15 0
-417 717 0
-417 15 0
418 -417 -33 0
-418 417 0
-418 33 0
419 -872 -416 0
-419 872 0
-419 416 0
420 -39 -789 0
-420 39 0
-420 789 0
421 -420 -723 0
-421 420 0
-421 723 0
422 -873 -419 0
-422 873 0
-422 419 0
423 -772 -28 0
-423 772 0
-423 28 0
424 -423 -16 0
-424 423 0
-424 16 0
425 -874 -422 0
-425 874 0
-425 422 0
426 -793 -744 0
-426 793 0
-426 744 0
427 -426 -836 0
-427 426 0
-427 836 0
428 -875 -425 0
-428 875 0
-428 425 0
429 -15 -12 0
-429 15 0
-429 12 0
430 -429 -722 0
-430 429 0
-430 722 0
431 -876 -428 0
-431 876 0
-431 428 0
432 -44 -13 0
-432 44 0
-432 13 0
433 -432 -3 0
-433 432 0
-433 3 0
434 -877 -431 0
-434 877 0
-434 431 0
435 -754 -704 0
-435 754 0
-435 704 0
436 -435 -29 0
-436 435 0
-436 29 0
437 -878 -434 0
-437 878 0
-437 434 0
438 -34 -773 0
-438 34 0
-438 773 0
439 -438 -33 0
-439 438 0
-439 33 0
440 -879 -437 0
-440 879 0
-440 437 0
441 -48 -4 0
-441 48 0
-441 4 0
442 -441 -13 0
-442 441 0
-442 13 0
443 -880 -440 0
-443 880 0
-443 440 0
444 -763 -719 0
-444 763 0
-444 719 0
445 -444 -787 0
-445 444 0
-445 787 0
446 -881 -443 0
-446 881 0
-446 443 0
447 -39 -11 0
-447 39 0
-447 11 0
448 -447 -733 0
-448 447 0
-448 733 0
449 -882 -446 0
-449 882 0
-449 446 0
450 -38 -701 0
-450 38 0
-450 701 0
451 -450 -20 0
-451 450 0
-451 20 0
452 -883 -449 0
-452 883 0
-452 449 0
453 -42 -701 0
-453 42 0
-453 701 0
454 -453 -6 0
-454 453 0
-454 6 0
455 -884 -452 0
-455 884 0
-455 452 0
456 -845 -10 0
-456 845 0
-456 10 0
457 -456 -741 0
-457 456 0
-457 741 0
458 -885 -455 0
-458 885 0
-458 455 0
459 -717 -7 0
-459 717 0
-459 7 0
460 -459 -6 0
-460 459 0
-460 6 0
461 -886 -458 0
-461 886 0
-461 458 0
462 -723 -5 0
-462 723 0
-462 5 0
463 -462 -705 0
-463 462 0
-463 705 0
464 -887 -461 0
-464 887 0
-464 461 0
465 -804 -787 0
-465 804 0
-465 787 0
466 -465 -705 0
-466 465 0
-466 705 0
467 -888 -464 0
-467 888 0
-467 464 0
468 -34 -711 0
-468 34 0
-468 711 0
469 -468 -845 0
-469 468 0
-469 845 0
470 -889 -467 0
-470 889 0
-470 467 0
471 -776 -3 0
-471 776 0
-471 3 0
472 -471 -741 0
-472 471 0
-472 741 0
473 -890 -470 0
-473 890 0
-473 470 0
474 -754 -27 0
-474 754 0
-474 27 0
475 -474 -21 0
-475 474 0
-475 21 0
476 -891 -473 0
-476 891 0
-476 473 0
477 -793 -38 0
-477 793 0
-477 38 0
478 -477 -3 0
-478 477 0
-478 3 0
479 -892 -476 0
-479 892 0
-479 476 0
480 -743 -789 0
-480 743 0
-480 789 0
481 -480 -705 0
-481 480 0
-481 705 0
482 -893 -479 0
-482 893 0
-482 479 0
483 -737 -722 0
-483 737 0
-483 722 0
484 -483 -24 0
-484 483 0
-484 24 0
485 -894 -482 0
-485 894 0
-485 482 0
486 -48 -30 0
-486 48 0
-486 30 0
487 -486 -50 0
-487 486 0
-487 50 0
488 -895 -485 0
-488 895 0
-488 485 0
489 -42 -744 0
-489 42 0
-489 744 0
490 -489 -733 0
-490 489 0
-490 733 0
491 -896 -488 0
-491 896 0
-491 488 0
492 -756 -5 0
-492 756 0
-492 5 0
493 -492 -3 0
-493 492 0
-493 3 0
494 -897 -491 0
-494 897 0
-494 491 0
495 -17 -711 0
-495 17 0
-495 711 0
496 -495 -829 0
-496 495 0
-496 829 0
497 -898 -494 0
-497 898 0
-497 494 0
498 -45 -711 0
-498 45 0
-498 711 0
499 -498 -729 0
-499 498 0
-499 729 0
500 -899 -497 0
-500 899 0
-500 497 0
501 -42 -15 0
-501 42 0
-501 15 0
502 -501 -772 0
-502 501 0
-502 772 0
503 -900 -500 0
-503 900 0
-503 500 0
504 -12 -2 0
-504 12 0
-504 2 0
505 -504 -30 0
-505 504 0
-505 30 0
506 -901 -503 0
-506 901 0
-506 503 0
507 -748 -5 0
-507 748 0
-507 5 0
508 -507 -722 0
-508 507 0
-508 722 0
509 -902 -506 0
-509 902 0
-509 506 0
510 -42 -19 0
-510 42 0
-510 19 0
511 -510 -21 0
-511 510 0
-511 21 0
512 -903 -509 0
-512 903 0
-512 509 0
513 -767 -5 0
-513 767 0
-513 5 0
514 -513 -800 0
-514 513 0
-514 800 0
515 -904 -512 0
-515 904 0
-515 512 0
516 -722 -7 0
-516 722 0
-516 7 0
517 -516 -729 0
-517 516 0
-517 729 0
518 -905 -515 0
-518 905 0
-518 515 0
519 -729 -12 0
-519 729 0
-519 12 0
520 -519 -34 0
-520 519 0
-520 34 0
521 -906 -518 0
-521 906 0
-521 518 0
522 -720 -17 0
-522 720 0
-522 17 0
523 -522 -800 0
-523 522 0
-523 800 0
524 -907 -521 0
-524 907 0
-524 521 0
525 -772 -703 0
-525 772 0
-525 703 0
526 -525 -24 0
-526 525 0
-526 24 0
527 -908 -524 0
-527 908 0
-527 524 0
528 -46 -703 0
-528 46 0
-528 703 0
529 -528 -773 0
-529 528 0
-529 773 0
530 -909 -527 0
-530 909 0
-530 527 0
531 -36 -32 0
-531 36 0
-531 32 0
532 -531 -708 0
-532 531 0
-532 708 0
533 -910 -530 0
-533 910 0
-533 530 0
534 -773 -711 0
-534 773 0
-534 711 0
535 -534 -40 0
-535 534 0
-535 40 0
536 -911 -533 0
-536 911 0
-536 533 0
537 -793 -737 0
-537 793 0
-537 737 0
538 -537 -41 0
-538 537 0
-538 41 0
539 -912 -536 0
-539 912 0
-539 536 0
540 -759 -2 0
-540 759 0
-540 2 0
541 -540 -720 0
-541 540 0
-541 720 0
542 -913 -539 0
-542 913 0
-542 539 0
543 -829 -708 0
-543 829 0
-543 708 0
544 -543 -741 0
-544 543 0
-544 741 0
545 -914 -542 0
-545 914 0
-545 542 0
546 -776 -703 0
-546 776 0
-546 703 0
547 -546 -772 0
-547 546 0
-547 772 0
548 -915 -545 0
-548 915 0
-548 545 0
549 -42 -711 0
-549 42 0
-549 711 0
550 -549 -44 0
-550 549 0
-550 44 0
551 -916 -548 0
-551 916 0
-551 548 0
552 -36 -11 0
-552 36 0
-552 11 0
553 -552 -12 0
-553 552 0
-553 12 0
554 -917 -551 0
-554 917 0
-554 551 0
555 -27 -716 0
-555 27 0
-555 716 0
556 -555 -708 0
-556 555 0
-556 708 0
557 -918 -554 0
-557 918 0
-557 554 0
558 -34 -741 0
-558 34 0
-558 741 0
559 -558 -705 0
-559 558 0
-559 705 0
560 -919 -557 0
-560 919 0
-560 557 0
561 -743 -1 0
-561 743 0
-561 1 0
562 -561 -829 0
-562 561 0
-562 829 0
563 -920 -560 0
-563 920 0
-563 560 0
564 -41 -719 0
-564 41 0
-564 719 0
565 -564 -8 0
-565 564 0
-565 8 0
566 -921 -563 0
-566 921 0
-566 563 0
567 -793 -6 0
-567 793 0
-567 6 0
568 -567 -800 0
-568 567 0
-568 800 0
569 -922 -566 0
-569 922 0
-569 566 0
570 -110 -22 0
-570 110 0
-570 22 0
571 -923 -569 0
-571 923 0
-571 569 0
572 -743 -723 0
-572 743 0
-572 723 0
573 -572 -836 0
-573 572 0
-573 836 0
574 -924 -571 0
-574 924 0
-574 571 0
575 -733 -700 0
-575 733 0
-575 700 0
576 -575 -829 0
-576 575 0
-576 829 0
577 -925 -574 0
-577 925 0
-577 574 0
578 -552 -727 0
-578 552 0
-578 727 0
579 -926 -577 0
-579 926 0
-579 577 0
580 -716 -12 0
-580 716 0
-580 12 0
581 -580 -33 0
-581 580 0
-581 33 0
582 -927 -579 0
-582 927 0
-582 579 0
583 -748 -763 0
-583 748 0
-583 763 0
584 -583 -24 0
-584 583 0
-584 24 0
585 -928 -582 0
-585 928 0
-585 582 0
586 -37 -23 0
-586 37 0
-586 23 0
587 -586 -49 0
-587 586 0
-587 49 0
588 -929 -585 0
-588 929 0
-588 585 0
589 -46 -789 0
-589 46 0
-589 789 0
590 -589 -20 0
-590 589 0
-590 20 0
591 -930 -588 0
-591 930 0
-591 588 0
592 -28 -5 0
-592 28 0
-592 5 0
593 -592 -722 0
-593 592 0
-593 722 0
594 -931 -591 0
-594 931 0
-594 591 0
595 -759 -1 0
-595 759 0
-595 1 0
596 -595 -787 0
-596 595 0
-596 787 0
597 -932 -594 0
-597 932 0
-597 594 0
598 -763 -700 0
-598 763 0
-598 700 0
599 -598 -22 0
-599 598 0
-599 22 0
600 -933 -597 0
-600 933 0
-600 597 0
601 -37 -711 0
-601 37 0
-601 711 0
602 -601 -729 0
-602 601 0
-602 729 0
603 -934 -600 0
-603 934 0
-603 600 0
604 -47 -37 0
-604 47 0
-604 37 0
605 -604 -729 0
-605 604 0
-605 729 0
606 -935 -603 0
-606 935 0
-606 603 0
607 -48 -46 0
-607 48 0
-607 46 0
608 -607 -34 0
-608 607 0
-608 34 0
609 -936 -606 0
-609 936 0
-609 606 0
610 -723 -719 0
-610 723 0
-610 719 0
611 -610 -22 0
-611 610 0
-611 22 0
612 -937 -609 0
-612 937 0
-612 609 0
613 -44 -708 0
-613 44 0
-613 708 0
614 -613 -33 0
-614 613 0
-614 33 0
615 -938 -612 0
-615 938 0
-615 612 0
616 -32 -1 0
-616 32 0
-616 1 0
617 -616 -773 0
-617 616 0
-617 773 0
618 -939 -615 0
-618 939 0
-618 615 0
619 -43 -26 0
-619 43 0
-619 26 0
620 -619 -3 0
-620 619 0
-620 3 0
621 -940 -618 0
-621 940 0
-621 618 0
622 -772 -33 0
-622 772 0
-622 33 0
623 -622 -40 0
-623 622 0
-623 40 0
624 -941 -621 0
-624 941 0
-624 621 0
625 -804 -11 0
-625 804 0
-625 11 0
626 -625 -800 0
-626 625 0
-626 800 0
627 -942 -624 0
-627 942 0
-627 624 0
628 -726 -15 0
-628 726 0
-628 15 0
629 -628 -25 0
-629 628 0
-629 25 0
630 -943 -627 0
-630 943 0
-630 627 0
631 -764 -32 0
-631 764 0
-631 32 0
632 -631 -804 0
-632 631 0
-632 804 0
633 -944 -630 0
-633 944 0
-633 630 0
634 -802 -722 0
-634 802 0
-634 722 0
635 -634 -729 0
-635 634 0
-635 729 0
636 -945 -633 0
-636 945 0
-636 633 0
637 -40 -716 0
-637 40 0
-637 716 0
638 -637 -31 0
-638 637 0
-638 31 0
639 -946 -636 0
-639 946 0
-639 636 0
640 -25 -13 0
-640 25 0
-640 13 0
641 -640 -33 0
-641 640 0
-641 33 0
642 -947 -639 0
-642 947 0
-642 639 0
643 -722 -5 0
-643 722 0
-643 5 0
644 -643 -8 0
-644 643 0
-644 8 0
645 -948 -642 0
-645 948 0
-645 642 0
646 -36 -804 0
-646 36 0
-646 804 0
647 -646 -702 0
-647 646 0
-647 702 0
648 -949 -645 0
-648 949 0
-648 645 0
649 -754 -716 0
-649 754 0
-649 716 0
650 -649 -42 0
-650 649 0
-650 42 0
651 -950 -648 0
-651 950 0
-651 648 0
652 -32 -700 0
-652 32 0
-652 700 0
653 -652 -29 0
-653 652 0
-653 29 0
654 -951 -651 0
-654 951 0
-654 651 0
655 -10 -701 0
-655 10 0
-655 701 0
656 -655 -26 0
-656 655 0
-656 26 0
657 -952 -654 0
-657 952 0
-657 654 0
658 -759 -23 0
-658 759 0
-658 23 0
659 -658 -47 0
-659 658 0
-659 47 0
660 -953 -657 0
-660 953 0
-660 657 0
661 -36 -737 0
-661 36 0
-661 737 0
662 -661 -24 0
-662 661 0
-662 24 0
663 -954 -660 0
-663 954 0
-663 660 0
664 -7 -1 0
-664 7 0
-664 1 0
665 -664 -22 0
-665 664 0
-665 22 0
666 -955 -663 0
-666 955 0
-666 663 0
667 -45 -28 0
-667 45 0
-667 28 0
668 -667 -746 0
-668 667 0
-668 746 0
669 -956 -666 0
-669 956 0
-669 666 0
670 -729 -719 0
-670 729 0
-670 719 0
671 -670 -34 0
-671 670 0
-671 34 0
672 -957 -669 0
-672 957 0
-672 669 0
673 -12 -5 0
-673 12 0
-673 5 0
674 -673 -31 0
-674 673 0
-674 31 0
675 -958 -672 0
-675 958 0
-675 672 0
676 -737 -700 0
-676 737 0
-676 700 0
677 -676 -708 0
-677 676 0
-677 708 0
678 -959 -675 0
-678 959 0
-678 675 0
679 -39 -29 0
-679 39 0
-679 29 0
680 -679 -8 0
-680 679 0
-680 8 0
681 -960 -678 0
-681 960 0
-681 678 0
682 -14 -3 0
-682 14 0
-682 3 0
683 -682 -50 0
-683 682 0
-683 50 0
684 -961 -681 0
-684 961 0
-684 681 0
685 -45 -20 0
-685 45 0
-685 20 0
686 -685 -804 0
-686 685 0
-686 804 0
687 -962 -684 0
-687 962 0
-687 684 0
688 -42 -5 0
-688 42 0
-688 5 0
689 -688 -8 0
-689 688 0
-689 8 0
690 -963 -687 0
-690 963 0
-690 687 0
691 -750 -701 0
-691 750 0
-691 701 0
692 -691 -717 0
-692 691 0
-692 717 0
693 -964 -690 0
-693 964 0
-693 690 0
694 -38 -703 0
-694 38 0
-694 703 0
695 -694 -772 0
-695 694 0
-695 772 0
696 -965 -693 0
-696 965 0
-696 693 0
697 -802 -10 0
-697 802 0
-697 10 0
698 -697 -13 0
-698 697 0
-698 13 0
699 -966 -696 0
-699 966 0
-699 696 0
-700 -2 0
700 2 0
-701 -1 0
701 1 0
-702 -3 0
702 3 0
-703 -5 0
703 5 0
-704 -4 0
704 4 0
-705 -6 0
705 6 0
-706 -54 0
706 54 0
-707 -52 0
707 52 0
-708 -8 0
708 8 0
-709 -7 0
709 7 0
-710 -57 0
710 57 0
-711 -11 0
711 11 0
-712 -10 0
712 10 0
-713 -60 0
713 60 0
-714 -63 0
714 63 0
-715 -66 0
715 66 0
-716 -15 0
716 15 0
-717 -16 0
717 16 0
-718 -69 0
718 69 0
-719 -17 0
719 17 0
-720 -18 0
720 18 0
-721 -72 0
721 72 0
-722 -20 0
722 20 0
-723 -19 0
723 19 0
-724 -75 0
724 75 0
-725 -78 0
725 78 0
-726 -24 0
726 24 0
-727 -25 0
727 25 0
-728 -81 0
728 81 0
-729 -26 0
729 26 0
-730 -84 0
730 84 0
-731 -87 0
731 87 0
-732 -90 0
732 90 0
-733 -30 0
733 30 0
-734 -93 0
734 93 0
-735 -96 0
735 96 0
-736 -99 0
736 99 0
-737 -32 0
737 32 0
-738 -102 0
738 102 0
-739 -34 0
739 34 0
-740 -105 0
740 105 0
-741 -33 0
741 33 0
-742 -108 0
742 108 0
-743 -36 0
743 36 0
-744 -35 0
744 35 0
-745 -111 0
745 111 0
-746 -37 0
746 37 0
-747 -114 0
747 114 0
-748 -38 0
748 38 0
-749 -117 0
749 117 0
-750 -39 0
750 39 0
-751 -120 0
751 120 0
-752 -40 0
752 40 0
-753 -123 0
753 123 0
-754 -28 0
754 28 0
-755 -126 0
755 126 0
-756 -41 0
756 41 0
-757 -129 0
757 129 0
-758 -132 0
758 132 0
-759 -43 0
759 43 0
-760 -42 0
760 42 0
-761 -135 0
761 135 0
-762 -138 0
762 138 0
-763 -23 0
763 23 0
-764 -44 0
764 44 0
-765 -141 0
765 141 0
-766 -144 0
766 144 0
-767 -45 0
767 45 0
-768 -147 0
768 147 0
-769 -150 0
769 150 0
-770 -153 0
770 153 0
-771 -156 0
771 156 0
-772 -47 0
772 47 0
-773 -14 0
773 14 0
-774 -159 0
774 159 0
-775 -162 0
775 162 0
-776 -21 0
776 21 0
-777 -165 0
777 165 0
-778 -168 0
778 168 0
-779 -171 0
779 171 0
-780 -174 0
780 174 0
-781 -177 0
781 177 0
-782 -180 0
782 180 0
-783 -183 0
783 183 0
-784 -186 0
784 186 0
-785 -189 0
785 189 0
-786 -192 0
786 192 0
-787 -9 0
787 9 0
-788 -195 0
788 195 0
-789 -27 0
789 27 0
-790 -198 0
790 198 0
-791 -201 0
791 201 0
-792 -204 0
792 204 0
-793 -46 0
793 46 0
-794 -207 0
794 207 0
-795 -210 0
795 210 0
-796 -13 0
796 13 0
-797 -213 0
797 213 0
-798 -216 0
798 216 0
-799 -219 0
799 219 0
-800 -31 0
800 31 0
-801 -222 0
801 222 0
-802 -48 0
802 48 0
-803 -225 0
803 225 0
-804 -29 0
804 29 0
-805 -228 0
805 228 0
-806 -231 0
806 231 0
-807 -234 0
807 234 0
-808 -237 0
808 237 0
-809 -240 0
809 240 0
-810 -243 0
810 243 0
-811 -246 0
811 246 0
-812 -249 0
812 249 0
-813 -252 0
813 252 0
-814 -255 0
814 255 0
-815 -258 0
815 258 0
-816 -261 0
816 261 0
-817 -264 0
817 264 0
-818 -267 0
818 267 0
-819 -270 0
819 270 0
-820 -273 0
820 273 0
-821 -276 0
821 276 0
-822 -279 0
822 279 0
-823 -282 0
823 282 0
-824 -285 0
824 285 0
-825 -288 0
825 288 0
-826 -291 0
826 291 0
-827 -294 0
827 294 0
-828 -297 0
828 297 0
-829 -22 0
829 22 0
-830 -300 0
830 300 0
-831 -303 0
831 303 0
-832 -306 0
832 306 0
-833 -309 0
833 309 0
-834 -312 0
834 312 0
-835 -315 0
835 315 0
-836 -49 0
836 49 0
-837 -318 0
837 318 0
-838 -321 0
838 321 0
-839 -324 0
839 324 0
-840 -327 0
840 327 0
-841 -329 0
841 329 0
-842 -332 0
842 332 0
-843 -335 0
843 335 0
-844 -338 0
844 338 0
-845 -50 0
845 50 0
-846 -341 0
846 341 0
-847 -344 0
847 344 0
-848 -347 0
848 347 0
-849 -350 0
849 350 0
-850 -353 0
850 353 0
-851 -356 0
851 356 0
-852 -359 0
852 359 0
-853 -362 0
853 362 0
-854 -365 0
854 365 0
-855 -368 0
855 368 0
-856 -371 0
856 371 0
-857 -374 0
857 374 0
-858 -377 0
858 377 0
-859 -379 0
859 379 0
-860 -382 0
860 382 0
-861 -385 0
861 385 0
-862 -388 0
862 388 0
-863 -391 0
863 391 0
-864 -394 0
864 394 0
-865 -397 0
865 397 0
-866 -400 0
866 400 0
-867 -403 0
867 403 0
-868 -406 0
868 406 0
-869 -409 0
869 409 0
-870 -412 0
870 412 0
-871 -415 0
871 415 0
-872 -418 0
872 418 0
-873 -421 0
873 421 0
-874 -424 0
874 424 0
-875 -427 0
875 427 0
-876 -430 0
876 430 0
-877 -433 0
877 433 0
-878 -436 0
878 436 0
-879 -439 0
879 439 0
-880 -442 0
880 442 0
-881 -445 0
881 445 0
-882 -448 0
882 448 0
-883 -451 0
883 451 0
-884 -454 0
884 454 0
-885 -457 0
885 457 0
-886 -460 0
886 460 0
-887 -463 0
887 463 0
-888 -466 0
888 466 0
-889 -469 0
889 469 0
-890 -472 0
890 472 0
-891 -475 0
891 475 0
-892 -478 0
892 478 0
-893 -481 0
893 481 0
-894 -484 0
894 484 0
-895 -487 0
895 487 0
-896 -490 0
896 490 0
-897 -493 0
897 493 0
-898 -496 0
898 496 0
-899 -499 0
899 499 0
-900 -502 0
900 502 0
-901 -505 0
901 505 0
-902 -508 0
902 508 0
-903 -511 0
903 511 0
-904 -514 0
904 514 0
-905 -517 0
905 517 0
-906 -520 0
906 520 0
-907 -523 0
907 523 0
-908 -526 0
908 526 0
-909 -529 0
909 529 0
-910 -532 0
910 532 0
-911 -535 0
911 535 0
-912 -538 0
912 538 0
-913 -541 0
913 541 0
-914 -544 0
914 544 0
-915 -547 0
915 547 0
-916 -550 0
916 550 0
-917 -553 0
917 553 0
-918 -556 0
918 556 0
-919 -559 0
919 559 0
-920 -562 0
920 562 0
-921 -565 0
921 565 0
-922 -568 0
922 568 0
-923 -570 0
923 570 0
-924 -573 0
924 573 0
-925 -576 0
925 576 0
-926 -578 0
926 578 0
-927 -581 0
927 581 0
-928 -584 0
928 584 0
-929 -587 0
929 587 0
-930 -590 0
930 590 0
-931 -593 0
931 593 0
-932 -596 0
932 596 0
-933 -599 0
933 599 0
-934 -602 0
934 602 0
-935 -605 0
935 605 0
-936 -608 0
936 608 0
-937 -611 0
937 611 0
-938 -614 0
938 614 0
-939 -617 0
939 617 0
-940 -620 0
940 620 0
-941 -623 0
941 623 0
-942 -626 0
942 626 0
-943 -629 0
943 629 0
-944 -632 0
944 632 0
-945 -635 0
945 635 0
-946 -638 0
946 638 0
-947 -641 0
947 641 0
-948 -644 0
948 644 0
-949 -647 0
949 647 0
-950 -650 0
950 650 0
-951 -653 0
951 653 0
-952 -656 0
952 656 0
-953 -659 0
953 659 0
-954 -662 0
954 662 0
-955 -665 0
955 665 0
-956 -668 0
956 668 0
-957 -671 0
957 671 0
-958 -674 0
958 674 0
-959 -677 0
959 677 0
-960 -680 0
960 680 0
-961 -683 0
961 683 0
-962 -686 0
962 686 0
-963 -689 0
963 689 0
-964 -692 0
964 692 0
-965 -695 0
965 695 0
-966 -698 0
966 698 0
699 0
